; benchmark generated from python API
(set-info :status unknown)
(declare-fun strlen_72_64 () (_ BitVec 64))
(declare-fun args_0_8 () (_ BitVec 8))
(declare-fun strlen_75_64 () (_ BitVec 64))
(declare-fun args_1_8 () (_ BitVec 8))
(declare-fun sigaction_oldact_171_1216 () (_ BitVec 1216))
(declare-fun sigaction_oldact_176_1216 () (_ BitVec 1216))
(declare-fun sigaction_oldact_186_1216 () (_ BitVec 1216))
(declare-fun sigaction_oldact_202_1216 () (_ BitVec 1216))
(declare-fun sigaction_oldact_236_1216 () (_ BitVec 1216))
(declare-fun sigaction_oldact_296_1216 () (_ BitVec 1216))
(declare-fun sigaction_oldact_423_1216 () (_ BitVec 1216))
(declare-fun sigaction_oldact_682_1216 () (_ BitVec 1216))
(declare-fun sigaction_oldact_1160_1216 () (_ BitVec 1216))
(assert
 (let (($x351 (= (_ bv1 64) strlen_72_64)))
 (not $x351)))
(assert
 (let ((?x82 (bvadd (_ bv576460752303357824 64) strlen_72_64)))
 (let (($x69 (= (_ bv0 8) args_0_8)))
 (let ((?x46 (ite $x69 (_ bv576460752303357824 64) (_ bv576460752303357825 64))))
 (= ?x46 ?x82)))))
(assert
 (let (($x347 (= (_ bv0 8) args_1_8)))
 (let ((?x355 (ite $x347 (_ bv576460752303357826 64) (_ bv576460752303357827 64))))
 (let ((?x356 (bvsub ?x355 (_ bv576460752303357826 64))))
 (= ?x356 strlen_75_64)))))
(assert
 (let ((?x1831 ((_ extract 127 120) sigaction_oldact_171_1216)))
 (let ((?x2319 (bvand ?x1831 (_ bv4 8))))
 (and (distinct (_ bv0 8) ?x2319) true))))
(assert
 (let ((?x2276 ((_ extract 127 120) sigaction_oldact_176_1216)))
 (let ((?x2398 (bvand ?x2276 (_ bv4 8))))
 (= (_ bv0 8) ?x2398))))
(assert
 (let ((?x2788 ((_ extract 127 120) sigaction_oldact_186_1216)))
 (let ((?x2813 (bvand ?x2788 (_ bv4 8))))
 (and (distinct (_ bv0 8) ?x2813) true))))
(assert
 (let ((?x3794 ((_ extract 127 120) sigaction_oldact_202_1216)))
 (let ((?x3819 (bvand ?x3794 (_ bv4 8))))
 (and (distinct (_ bv0 8) ?x3819) true))))
(assert
 (let ((?x5953 ((_ extract 127 120) sigaction_oldact_236_1216)))
 (let ((?x5978 (bvand ?x5953 (_ bv4 8))))
 (= (_ bv0 8) ?x5978))))
(assert
 (let ((?x9975 ((_ extract 127 120) sigaction_oldact_296_1216)))
 (let ((?x10000 (bvand ?x9975 (_ bv4 8))))
 (and (distinct (_ bv0 8) ?x10000) true))))
(assert
 (let ((?x19730 ((_ extract 127 120) sigaction_oldact_423_1216)))
 (let ((?x19820 (bvand ?x19730 (_ bv4 8))))
 (and (distinct (_ bv0 8) ?x19820) true))))
(assert
 (let ((?x37804 ((_ extract 127 120) sigaction_oldact_682_1216)))
 (let ((?x37829 (bvand ?x37804 (_ bv4 8))))
 (= (_ bv0 8) ?x37829))))
(assert
 (let ((?x66834 ((_ extract 127 120) sigaction_oldact_1160_1216)))
 (let ((?x25680 (bvand ?x66834 (_ bv4 8))))
 (and (distinct (_ bv0 8) ?x25680) true))))
(maximize strlen_75_64)
(minimize strlen_75_64)
(maximize args_1_8)
(maximize sigaction_oldact_186_1216)
(minimize sigaction_oldact_296_1216)
(maximize sigaction_oldact_423_1216)
(minimize sigaction_oldact_1160_1216)
(minimize sigaction_oldact_423_1216)
(minimize args_0_8)
(maximize strlen_72_64)
(minimize sigaction_oldact_202_1216)
(minimize sigaction_oldact_186_1216)
(maximize sigaction_oldact_176_1216)
(maximize sigaction_oldact_202_1216)
(minimize sigaction_oldact_176_1216)
(maximize sigaction_oldact_682_1216)
(minimize sigaction_oldact_682_1216)
(maximize sigaction_oldact_171_1216)
(minimize strlen_72_64)
(maximize sigaction_oldact_1160_1216)
(check-sat)
(get-objectives)
